50
100
100
99
98
98
98
91
90
87
84
84
78
77
72
71
70
69
69
64
63
58
58
46
45
45
43
43
42
41
37
37
37
35
34
31
30
29
24
23
22
21
20
17
12
11
10
9
7
6
5
4
